Version identifier: 22.1.0.0 | 2022-03-09 | 1a383f8ce
CPXPARAM_Threads                                 1
CPXPARAM_MIP_Strategy_VariableSelect             3
CPXPARAM_TimeLimit                               600
Tried aggregator 1 time.
Reduced MIP has 1224 rows, 6800 columns, and 54086 nonzeros.
Reduced MIP has 5800 binaries, 1000 generals, 0 SOSs, and 0 indicators.
Presolve time = 0.03 sec. (21.32 ticks)
Found incumbent of value 1012.000000 after 0.07 sec. (53.80 ticks)
Probing time = 0.01 sec. (6.66 ticks)
Tried aggregator 1 time.
Detecting symmetries...
Reduced MIP has 1224 rows, 6800 columns, and 54086 nonzeros.
Reduced MIP has 5800 binaries, 1000 generals, 0 SOSs, and 0 indicators.
Presolve time = 0.03 sec. (26.41 ticks)
Probing time = 0.01 sec. (6.66 ticks)
Clique table members: 202.
MIP emphasis: balance optimality and feasibility.
MIP search method: dynamic search.
Parallel mode: none, using 1 thread.
Root relaxation solution time = 0.65 sec. (663.33 ticks)

        Nodes                                         Cuts/
   Node  Left     Objective  IInf  Best Integer    Best Bound    ItCnt     Gap

*     0+    0                         1012.0000        0.0000           100.00%
      0     0        0.0000  1130     1012.0000        0.0000     3359  100.00%
      0     0        0.0000   634     1012.0000   ZeroHalf: 1     3611  100.00%
      0     0        0.0000   773     1012.0000      Cuts: 57     6935  100.00%
      0     0        0.0000   751     1012.0000   ZeroHalf: 2    11471  100.00%
*     0+    0                          267.0000        0.0000           100.00%
*     0+    0                          254.0000        0.0000           100.00%
      0     0  -1.00000e+75     0      254.0000        0.0000    11471  100.00%
      0     0        0.0000   468      254.0000   ZeroHalf: 2    11705  100.00%
      0     0        0.0000   564      254.0000  ZeroHalf: 63    14447  100.00%
Detecting symmetries...
*     0+    0                          212.0000        0.0000           100.00%
*     0+    0                          199.0000        0.0000           100.00%
*     0+    0                          196.0000        0.0000           100.00%
      0     0  -1.00000e+75     0      196.0000        0.0000    14447  100.00%
Detecting symmetries...
      0     2        0.0000   485      196.0000        0.0000    14447  100.00%
Elapsed time = 22.99 sec. (24329.16 ticks, tree = 0.01 MB, solutions = 6)
      1     3        1.0000   630      196.0000        0.0000    20627  100.00%
      2     4        0.0000   765      196.0000        0.0000    24505  100.00%
      3     5        0.0000   700      196.0000        0.0000    28001  100.00%
      4     6        0.0000   659      196.0000        0.0000    30470  100.00%
      5     7        0.1316  1045      196.0000        0.0000    35334  100.00%
      6     8        0.0000   747      196.0000        0.0000    37388  100.00%
      7     9        0.0000  1116      196.0000        0.0000    39187  100.00%
      8    10        0.0000  1040      196.0000        0.0000    39629  100.00%
      9    11        1.0000  1009      196.0000        0.0000    40099  100.00%
     13    15       -0.0000  1046      196.0000        0.0000    40297  100.00%
Elapsed time = 31.52 sec. (33646.16 ticks, tree = 0.11 MB, solutions = 6)
     16    18        0.0000  1018      196.0000        0.0000    43284  100.00%
     19    21       -0.0000   941      196.0000        0.0000    47971  100.00%
     20    22        0.0000   977      196.0000        0.0000    51477  100.00%
     23    25        0.0000   845      196.0000        0.0000    53973  100.00%
     26    28       -0.0000   852      196.0000        0.0000    58223  100.00%
     29    31        0.0000   786      196.0000        0.0000    59305  100.00%
     30    32        0.0000   758      196.0000        0.0000    59966  100.00%
     32    34       -0.0000   580      196.0000        0.0000    61771  100.00%
     34    36        0.1944   546      196.0000        0.0000    72341  100.00%
     35    37        0.0222   627      196.0000        0.0000    79109  100.00%
Elapsed time = 44.15 sec. (46944.43 ticks, tree = 0.37 MB, solutions = 6)
     38    40        0.2353   572      196.0000        0.0000    84007  100.00%
     40    42       -0.0000   616      196.0000        0.0000    84050  100.00%
     42    44       -0.0000   575      196.0000        0.0000    87462  100.00%
     44    46       -0.0000   516      196.0000        0.0000    89246  100.00%
     46    48       -0.0000   265      196.0000        0.0000    94835  100.00%
     48    50        0.3900   588      196.0000        0.0000    98486  100.00%
     49    51        0.0000   299      196.0000        0.0000   102907  100.00%
     50    52        0.4025   604      196.0000        0.0000   107337  100.00%
     52    54        1.1667   577      196.0000        0.0000   111726  100.00%
     54    56       -0.0000   304      196.0000        0.0000   117758  100.00%
Elapsed time = 57.17 sec. (60400.48 ticks, tree = 0.59 MB, solutions = 6)
     56    58        0.0000   298      196.0000        0.0000   121671  100.00%
     58    60        0.0397   475      196.0000        0.0000   129357  100.00%
     60    62       -0.0000   371      196.0000        0.0000   133662  100.00%
     63    65        1.0000   387      196.0000        0.0000   135773  100.00%
     65    67        0.0000   267      196.0000        0.0000   138964  100.00%
     67    69        1.0000   379      196.0000        0.0000   144159  100.00%
     69    71       -0.0000   254      196.0000        0.0000   147118  100.00%
     71    73        0.3900   550      196.0000        0.0000   157776  100.00%
     73    75        1.0000   404      196.0000        0.0000   163753  100.00%
     75    77       -0.0000   349      196.0000        0.0000   169116  100.00%
Elapsed time = 72.08 sec. (75413.67 ticks, tree = 0.78 MB, solutions = 6)
     77    79        0.0566   412      196.0000        0.0000   173232  100.00%
     79    81       -0.0000   322      196.0000        0.0000   177898  100.00%
     81    83        0.0000   313      196.0000        0.0000   184047  100.00%
     83    85        0.0000   431      196.0000        0.0000   187959  100.00%
     86    88       -0.0000   381      196.0000        0.0000   191193  100.00%
     90    92        0.1600   418      196.0000        0.0000   196212  100.00%
     92    94        0.5000   436      196.0000        0.0000   199096  100.00%
     94    96        0.0000   346      196.0000        0.0000   206552  100.00%
     96    98       -0.0000   328      196.0000        0.0000   211069  100.00%
     99   101        0.0000   258      196.0000        0.0000   214682  100.00%
Elapsed time = 85.08 sec. (88690.02 ticks, tree = 1.03 MB, solutions = 6)
    101   103        1.5000   386      196.0000        0.0000   219120  100.00%
    104   106        0.5114   510      196.0000        0.0000   223407  100.00%
    107   109       -0.0000   397      196.0000        0.0000   225533  100.00%
    109   111        0.0000   318      196.0000        0.0000   229454  100.00%
    113   115        0.0000   299      196.0000        0.0000   231719  100.00%
    116   118        0.0909   446      196.0000        0.0000   236741  100.00%
    118   120       -0.0000   292      196.0000        0.0000   240055  100.00%
    120   122        1.5000   423      196.0000        0.0000   244322  100.00%
    123   125        0.0737   545      196.0000        0.0000   246124  100.00%
    127   129        0.5182   486      196.0000        0.0000   250054  100.00%
Elapsed time = 99.32 sec. (102879.78 ticks, tree = 1.35 MB, solutions = 6)
*   130+  130                           93.0000        0.0000           100.00%
    130   132        0.2151   661       93.0000        0.0000   250805  100.00%
    133   135        0.4978   638       93.0000        0.0000   254058  100.00%
    136   138        0.5000   458       93.0000        0.0000   256158  100.00%
    140   142        0.5000   460       93.0000        0.0000   257911  100.00%
    143   145        2.0000   417       93.0000        0.0000   260761  100.00%
    146   148        1.5000   391       93.0000        0.0000   263656  100.00%
    149   151        1.4083   545       93.0000        0.0000   267321  100.00%
    151   153        1.0000   450       93.0000        0.0000   270080  100.00%
    155   157        1.0000   458       93.0000        0.0000   272829  100.00%
    158   160        2.0667   410       93.0000        0.0000   276342  100.00%
Elapsed time = 111.15 sec. (114510.76 ticks, tree = 1.73 MB, solutions = 7)
    161   163        1.5479   581       93.0000        0.0000   280537  100.00%
    165   167        1.0000   420       93.0000        0.0000   282752  100.00%
    168   170        1.1765   476       93.0000        0.0000   286958  100.00%
    171   173        1.5417   549       93.0000        0.0000   292018  100.00%
    174   176        1.0000   387       93.0000        0.0000   295564  100.00%
    177   179        1.0000   384       93.0000        0.0000   297689  100.00%
*   180+  180                           80.0000        0.0000           100.00%
    180   182        1.0000   403       80.0000        0.0000   298690  100.00%
    182   184        2.0000   421       80.0000        0.0000   302188  100.00%
    185   187        1.0000   422       80.0000        0.0000   304313  100.00%
    188   190        4.0000   532       80.0000        0.0000   308282  100.00%
Elapsed time = 125.33 sec. (128317.65 ticks, tree = 2.10 MB, solutions = 8)
    190   192        1.0000   383       80.0000        0.0000   312249  100.00%
    193   195        2.0000   387       80.0000        0.0000   314830  100.00%
    198   200        3.0000   423       80.0000        0.0000   316453  100.00%
    202   204        2.1667   455       80.0000        0.0000   321329  100.00%
    207   209        2.2333   381       80.0000        0.0000   323214  100.00%
    211   213        3.1143   422       80.0000        0.0000   326660  100.00%
    215   217        2.3077   395       80.0000        0.0000   328778  100.00%
    220   222        2.4500   400       80.0000        0.0000   330574  100.00%
    223   225        3.2917   437       80.0000        0.0000   334230  100.00%
    228   230        5.0000   415       80.0000        0.0000   335500  100.00%
Elapsed time = 137.26 sec. (139905.80 ticks, tree = 2.57 MB, solutions = 8)
    233   235        6.0000   385       80.0000        0.0000   337714  100.00%
    237   239        5.1250   427       80.0000        0.0000   340646  100.00%
    243   245        5.2917   448       80.0000        0.0000   341801  100.00%
    248   250        8.0000   283       80.0000        0.0000   344807  100.00%
    255   257        8.0000   276       80.0000        0.0000   345879  100.00%
    260   262        9.0000   265       80.0000        0.0000   348190  100.00%
    265   267       10.0000   244       80.0000        0.0000   350858  100.00%
    272   274       11.0000   187       80.0000        0.0000   352575  100.00%
*   276   266      integral     0       11.0000        0.0000   353467  100.00%
    277   266        0.5673   486       11.0000        0.0000   355974  100.00%
    291   280        2.5556   445       11.0000        0.0000   362862  100.00%
Elapsed time = 151.49 sec. (153455.44 ticks, tree = 3.18 MB, solutions = 9)
    302   291        5.5000   260       11.0000        0.0000   373882  100.00%
    318   307        9.0000   306       11.0000        0.0000   380508  100.00%
    340   321       10.0000   251       11.0000        0.0000   389480  100.00%
    356   326       -0.0000   578       11.0000        0.0000   398281  100.00%
    367   337       -0.0000   560       11.0000        0.0000   403387  100.00%
    376   346        0.0000   413       11.0000        0.0000   411072  100.00%
    384   354        0.2797   580       11.0000        0.0000   422893  100.00%
    394   364        0.3182   593       11.0000        0.0000   425249  100.00%
    409   379        0.2727   483       11.0000        0.0000   429950  100.00%
    427   397        0.2805   473       11.0000        0.0000   431660  100.00%
Elapsed time = 191.93 sec. (193243.28 ticks, tree = 4.33 MB, solutions = 9)
    447   417        0.2895   518       11.0000        0.0000   433199  100.00%
    464   434        0.4009   577       11.0000        0.0000   436016  100.00%
    481   451        0.5000   568       11.0000        0.0000   437287  100.00%
    496   466        0.6444   549       11.0000        0.0000   442260  100.00%
    510   480        0.1316   518       11.0000        0.0000   450475  100.00%
    511   481        0.0433   541       11.0000        0.0000   455120  100.00%

Performing restart 1

Repeating presolve.
Tried aggregator 1 time.
MIP Presolve modified 54179 coefficients.
Reduced MIP has 1224 rows, 6800 columns, and 39029 nonzeros.
Reduced MIP has 5802 binaries, 998 generals, 0 SOSs, and 0 indicators.
Presolve time = 0.05 sec. (55.95 ticks)
Tried aggregator 1 time.
Reduced MIP has 1224 rows, 6800 columns, and 39029 nonzeros.
Reduced MIP has 5802 binaries, 998 generals, 0 SOSs, and 0 indicators.
Presolve time = 0.03 sec. (21.07 ticks)
Represolve time = 0.26 sec. (168.96 ticks)
    513     0        0.0000   715       11.0000   ZeroHalf: 8   465494  100.00%
    513     0        0.0000   778       11.0000      Cuts: 13   468335  100.00%
    513     0        0.0000   707       11.0000      Cuts: 34   471349  100.00%
    513     0        0.0000   622       11.0000      Cuts: 25   474179  100.00%
    513     0        0.0000  1019       11.0000      Cuts: 27   478600  100.00%
    513     0        0.0000   608       11.0000       Cuts: 7   482331  100.00%
    513     0        0.0000   555       11.0000   ZeroHalf: 6   483451  100.00%
    513     0        0.0000  1142       11.0000   ZeroHalf: 8   485759  100.00%
    513     0        0.0000   992       11.0000      Cuts: 23   489931  100.00%
    513     0        0.0000   968       11.0000      Cuts: 15   494996  100.00%
    513     0        0.0000   965       11.0000  ZeroHalf: 11   500060  100.00%
    513     2        0.0000   460       11.0000        0.0000   500060  100.00%
    516     5        0.0000   627       11.0000        0.0000   517019  100.00%
    521    10       -0.0000   825       11.0000        0.0000   532398  100.00%
    529    18        0.0000   769       11.0000        0.0000   547694  100.00%
Elapsed time = 325.62 sec. (325687.95 ticks, tree = 0.06 MB, solutions = 9)
    533    22       -0.0000   758       11.0000        0.0000   553616  100.00%
    539    28        0.0000   664       11.0000        0.0000   567642  100.00%
    544    33        0.0250   787       11.0000        0.0000   582309  100.00%
    553    42        0.2500   797       11.0000        0.0000   595148  100.00%
    562    51        0.1538   666       11.0000        0.0000   606807  100.00%
    565    54        0.0000   812       11.0000        0.0000   619576  100.00%
    575    64        0.0000   387       11.0000        0.0000   636003  100.00%
    582    71       -0.0000   327       11.0000        0.0000   666214  100.00%
    591    80        0.3333   345       11.0000        0.0000   684907  100.00%
    598    87        0.9549   629       11.0000        0.0000   706568  100.00%
Elapsed time = 366.46 sec. (367331.56 ticks, tree = 0.24 MB, solutions = 9)
    606    95        0.8811   456       11.0000        0.0000   725281  100.00%
    612   101        0.0000   295       11.0000        0.0000   748196  100.00%
    622   111        1.0000   345       11.0000        0.0000   762048  100.00%
    635   124        1.0000   497       11.0000        0.0000   769237  100.00%
    650   139        2.0000   562       11.0000        0.0000   779774  100.00%
    663   152        2.2143   481       11.0000        0.0000   788552  100.00%
    677   166        2.5000   463       11.0000        0.0000   797837  100.00%
    694   183        5.1559   557       11.0000        0.0000   808121  100.00%
    715   204        7.5000   405       11.0000        0.0000   816788  100.00%
    747   220        0.0000   409       11.0000        0.0000   829255  100.00%
Elapsed time = 408.17 sec. (409034.96 ticks, tree = 0.60 MB, solutions = 9)
    757   230        0.0000   435       11.0000        0.0000   841982  100.00%
    766   239       -0.0000   448       11.0000        0.0000   855970  100.00%
    775   248       -0.0000   483       11.0000        0.0000   868570  100.00%
    786   259        0.0000   441       11.0000        0.0000   880371  100.00%
    795   268       -0.0000   440       11.0000        0.0000   895130  100.00%
    804   277        0.0000   436       11.0000        0.0000   907970  100.00%
    813   286        0.0000   453       11.0000        0.0000   920456  100.00%
    822   295        0.1020   636       11.0000        0.0000   933978  100.00%
    831   304       -0.0000   456       11.0000        0.0000   946015  100.00%
    838   311        0.1020   559       11.0000        0.0000   956346  100.00%
Elapsed time = 447.25 sec. (449766.27 ticks, tree = 0.85 MB, solutions = 9)
    847   320        0.0241   605       11.0000        0.0000   968937  100.00%
    860   333        0.0462   629       11.0000        0.0000   979260  100.00%
    873   346        0.8670   542       11.0000        0.0000   988308  100.00%
    887   360        0.3931   542       11.0000        0.0000   996938  100.00%
    898   371        0.8389   578       11.0000        0.0000  1003330  100.00%
    914   387        0.0920   689       11.0000        0.0000  1009671  100.00%
    930   403        0.0920   700       11.0000        0.0000  1016694  100.00%
    940   413        0.1648   594       11.0000        0.0000  1021945  100.00%
    954   427        0.2252   630       11.0000        0.0000  1032393  100.00%
    970   443        0.2286   654       11.0000        0.0000  1038900  100.00%
Elapsed time = 485.85 sec. (489560.27 ticks, tree = 1.22 MB, solutions = 9)
    986   459        1.0232   581       11.0000        0.0000  1047670  100.00%
   1003   476        0.2442   693       11.0000        0.0000  1056389  100.00%
   1013   486        1.0396   643       11.0000        0.0000  1059600  100.00%
   1030   503        1.2894   549       11.0000        0.0000  1067838  100.00%
   1046   519        0.3034   563       11.0000        0.0000  1076009  100.00%
   1056   529        0.3077   550       11.0000        0.0000  1081089  100.00%
   1070   543        0.7349   578       11.0000        0.0000  1091861  100.00%
   1083   556        3.5000   279       11.0000        0.0000  1104131  100.00%
   1099   572        6.5000   417       11.0000        0.0000  1116928  100.00%
Starting limited solution polishing.
   1113   586        8.3333   400       11.0000        0.0000  1123905  100.00%
Elapsed time = 543.82 sec. (542181.19 ticks, tree = 1.63 MB, solutions = 9)
   1130   593        0.0000   614       11.0000        0.0000  1132170  100.00%
   1147   610        0.0482   642       11.0000        0.0000  1138509  100.00%
   1161   624        0.0482   636       11.0000        0.0000  1143058  100.00%
   1179   642        0.1149   715       11.0000        0.0000  1148502  100.00%
   1193   656        0.1149   714       11.0000        0.0000  1151551  100.00%
   1211   674        0.1171   667       11.0000        0.0000  1155259  100.00%
   1226   689        0.1492   683       11.0000        0.0000  1161835  100.00%
   1239   702        0.2400   643       11.0000        0.0000  1165495  100.00%
   1262   725        0.2475   567       11.0000        0.0000  1168424  100.00%
   1273   736        0.2785   565       11.0000        0.0000  1171034  100.00%
Elapsed time = 583.95 sec. (582737.04 ticks, tree = 2.03 MB, solutions = 9)
   1293   756        0.2904   561       11.0000        0.0000  1174935  100.00%
   1313   776        0.3019   600       11.0000        0.0000  1178199  100.00%
   1324   787        1.0000   446       11.0000        0.0000  1190600  100.00%
   1335   798        1.0000   503       11.0000        0.0000  1203398  100.00%

Zero-half cuts applied:  42
Gomory fractional cuts applied:  3

Root node processing (before b&c):
  Real time             =   22.95 sec. (24287.65 ticks)
Sequential b&c:
  Real time             =  577.05 sec. (574996.39 ticks)
                          ------------
Total (root+branch&cut) =  600.00 sec. (599284.03 ticks)
Primal number of violations:	11
Dual number of violations:	0
Status:	Feasible
Time:	600.02
Sequence:
	21
	8
	14
	10
	8
	14
	11
	8
	14
	6
	22
	0
	17
	12
	14
	6
	17
	4
	18
	8
	16
	6
	17
	4
	18
	8
	16
	6
	19
	3
	19
	6
	16
	8
	17
	5
	17
	6
	16
	8
	17
	5
	17
	6
	14
	8
	22
	14
	7
	10
	14
	8
	22
	0
	17
	10
	15
	8
	17
	3
	6
	15
	10
	15
	7
	20
	15
	20
	8
	14
	20
	9
	14
	22
	6
	14
	11
	8
	15
	10
	14
	7
	22
	15
	6
	20
	14
	9
	2
	17
	6
	15
	12
	14
	6
	17
	3
	19
	8
	16
	6
	18
	2
	19
	8
	16
	7
	17
	4
	19
	6
	16
	6
	15
	10
	14
	9
	14
	12
	14
	6
	22
	0
	17
	10
	15
	6
	13
	14
	6
	17
	4
	18
	8
	16
	6
	17
	5
	17
	6
	16
	8
	17
	4
	6
	18
	2
	19
	6
	16
	6
	17
	5
	17
	8
	16
	6
	14
	10
	19
	1
	20
	6
	14
	10
	14
	7
	20
	14
	6
	22
	7
	14
	8
	17
	2
	9
	14
	12
	14
	6
	16
	9
	17
	4
	14
	6
	23
	6
	14
	10
	14
	8
	20
	1
	17
	10
	14
	8
	21
